db/inputs/2409923763946902315801189773180725315.smt2
(set-logic QF_FP)
(declare-const x0 (_ FloatingPoint 8 24))
(declare-const x1 (_ FloatingPoint 8 24))
(declare-const x2 (_ FloatingPoint 8 24))
(declare-const x3 (_ FloatingPoint 8 24))
(declare-const x4 (_ FloatingPoint 8 24))
(declare-const x5 (_ FloatingPoint 8 24))
(declare-const x6 (_ FloatingPoint 8 24))
(declare-const x7 (_ FloatingPoint 8 24))
(declare-const x8 (_ FloatingPoint 8 24))
(declare-const x9 (_ FloatingPoint 8 24))
(declare-const x10 (_ FloatingPoint 8 24))
(declare-const x11 (_ FloatingPoint 8 24))
(declare-const x12 (_ FloatingPoint 8 24))
(declare-const x13 (_ FloatingPoint 8 24))
(declare-const x14 (_ FloatingPoint 8 24))
(declare-const x15 (_ FloatingPoint 8 24))
(declare-const x16 (_ FloatingPoint 8 24))
(assert (fp.lt (fp.add RNE x1 x11) (fp.add RNE x2 x0)))
(assert (fp.gt (fp.div RNE x10 x9) (fp.mul RNE x13 x14)))
(assert (fp.geq (fp.mul RNE x5 x13) (fp.neg x0)))
(assert (fp.eq (fp.add RNE x1 x14) (fp.add RNE x15 x16)))
(assert (fp.eq (fp.sub RNE x2 x12) (fp.add RNE x15 x8)))
(check-sat)
