db/data/2409923763946902315801189773180725315.z3.out
sat
-------------------
13.475555513
